frontend/benchmarks/isaplanner_smt_nosortnat/prop_30.smt20.smt2
(declare-sort sk2 0)
(declare-sort sk 0)
(declare-datatype list2 ((nil2) (cons2 (head2 sk) (tail2 list2))))
(declare-datatype Nat ((Z) (S (proj1-S Nat))))
(declare-datatype list ((nil) (cons (head Nat) (tail list))))
(declare-fun == (Nat Nat) Bool)
(declare-fun elem (Nat list) Bool)
(declare-fun <2 (Nat Nat) Bool)
(declare-fun ins (Nat list) list)
(assert (== Z Z))
(assert (forall ((z Nat)) (not (== Z (S z)))))
(assert (forall ((x2 Nat)) (not (== (S x2) Z))))
(assert
  (forall ((x2 Nat) (y2 Nat)) (= (== (S x2) (S y2)) (== x2 y2))))
(assert (forall ((x Nat)) (not (elem x nil))))
(assert
  (forall ((x Nat) (z Nat) (xs list))
    (=> (not (== x z)) (= (elem x (cons z xs)) (elem x xs)))))
(assert
  (forall ((x Nat) (z Nat) (xs list))
    (=> (== x z) (elem x (cons z xs)))))
(assert (forall ((x Nat)) (not (<2 x Z))))
(assert (forall ((z Nat)) (<2 Z (S z))))
(assert
  (forall ((z Nat) (x2 Nat)) (= (<2 (S x2) (S z)) (<2 x2 z))))
(assert (forall ((x Nat)) (= (ins x nil) (cons x nil))))
(assert
  (forall ((x Nat) (z Nat) (xs list))
    (=> (not (<2 x z)) (= (ins x (cons z xs)) (cons z (ins x xs))))))
(assert
  (forall ((x Nat) (z Nat) (xs list))
    (=> (<2 x z) (= (ins x (cons z xs)) (cons x (cons z xs))))))
