experiments/isaplanner_proving/isaplanner_no_cs/prop_30.smt20.smt2.log
11:01:58 [WARN] Collecting statistics
11:01:58 [WARN]  ex is: Z
11:01:58 [WARN]  ex is: (S Z)
11:01:58 [WARN]  ex is: (S (S Z))
11:01:58 [WARN]  ex is: nil
11:01:58 [WARN]  ex is: (cons autovar_Nat_0 nil)
11:01:58 [WARN]  ex is: (cons autovar_Nat_1 (cons autovar_Nat_0 nil))
11:01:58 [WARN] Proof mode: false
11:01:58 [WARN]  ex is: Z
11:01:58 [WARN]  ex is: (S Z)
11:01:58 [WARN]  ex is: (S (S Z))
11:01:58 [WARN]  ex is: nil
11:01:58 [WARN]  ex is: (cons autovar_Nat_0 nil)
11:01:58 [WARN]  ex is: (cons autovar_Nat_1 (cons autovar_Nat_0 nil))
11:01:58 [WARN] Proof mode: false
11:01:58 [WARN] proved: (== ?ts_ph_Nat_0 ?ts_ph_Nat_0) => true
11:01:58 [WARN] proved: (== ?ts_ph_Nat_0 Z) => (== Z ?ts_ph_Nat_0)
11:01:58 [WARN] proved: (== Z ?ts_ph_Nat_0) => (== ?ts_ph_Nat_0 Z)
11:01:58 [WARN] proved: (<2 ?ts_ph_Nat_0 ?ts_ph_Nat_0) => false
11:01:58 [WARN] proved: (<2 ?ts_ph_Nat_0 (S ?ts_ph_Nat_0)) => true
11:01:58 [WARN] proved: (<2 ?ts_ph_Nat_0 (S Z)) => (== Z ?ts_ph_Nat_0)
11:01:58 [WARN] proved: (== Z ?ts_ph_Nat_0) => (<2 ?ts_ph_Nat_0 (S Z))
11:01:59 [WARN] proved: (== (S Z) ?ts_ph_Nat_0) => (== ?ts_ph_Nat_0 (S Z))
11:01:59 [WARN] proved: (== ?ts_ph_Nat_0 (S Z)) => (== (S Z) ?ts_ph_Nat_0)
11:01:59 [WARN] proved: (== ?ts_ph_Nat_0 (S ?ts_ph_Nat_0)) => false
11:01:59 [WARN] proved: (<2 (S ?ts_ph_Nat_0) ?ts_ph_Nat_0) => false
11:01:59 [WARN] proved: (== (S ?ts_ph_Nat_0) ?ts_ph_Nat_0) => false
